benchmarks/INST_36x36/15/inst36x36_15_55.txt
6
1
-1	-1	12	-1	30	-1	-1	-1	-1	-1	5	-1	27	-1	-1	21	-1	-1	7	-1	-1	-1	-1	-1	-1	15	-1	-1	-1	-1	-1	-1	-1	-1	-1	-1
-1	-1	33	-1	-1	-1	-1	9	11	-1	13	-1	-1	-1	-1	-1	-1	-1	-1	19	6	27	-1	-1	-1	-1	-1	-1	20	-1	-1	32	14	-1	-1	-1
-1	-1	-1	-1	23	-1	-1	-1	3	-1	-1	-1	-1	-1	-1	31	-1	-1	17	-1	-1	-1	-1	-1	-1	-1	-1	-1	-1	-1	-1	-1	-1	-1	-1	18
-1	-1	17	-1	-1	13	-1	-1	-1	-1	-1	-1	-1	8	-1	-1	-1	-1	-1	-1	31	-1	-1	-1	-1	7	-1	-1	-1	-1	-1	-1	-1	35	-1	-1
7	-1	-1	-1	-1	-1	-1	-1	-1	15	-1	-1	-1	-1	-1	24	6	-1	13	-1	-1	-1	-1	-1	-1	-1	-1	12	30	-1	-1	-1	-1	-1	-1	-1
25	-1	-1	-1	-1	-1	31	-1	-1	-1	-1	-1	-1	-1	-1	-1	-1	-1	-1	-1	-1	-1	-1	-1	-1	-1	-1	-1	-1	-1	-1	1	-1	-1	-1	-1
-1	-1	-1	-1	35	-1	-1	-1	-1	-1	17	-1	-1	-1	33	-1	-1	-1	-1	-1	-1	-1	-1	-1	-1	-1	12	-1	-1	-1	11	-1	-1	-1	-1	22
-1	-1	-1	11	-1	-1	-1	-1	-1	-1	-1	-1	-1	-1	-1	-1	-1	-1	-1	-1	-1	-1	-1	-1	-1	-1	-1	-1	-1	25	-1	-1	-1	-1	29	-1
-1	-1	-1	-1	-1	24	36	-1	-1	19	-1	-1	-1	-1	-1	-1	-1	-1	-1	-1	-1	-1	-1	-1	3	-1	21	-1	15	-1	-1	-1	-1	-1	-1	-1
-1	-1	1	-1	-1	-1	-1	13	12	-1	-1	-1	-1	14	-1	-1	-1	35	-1	-1	-1	-1	-1	-1	8	-1	-1	-1	-1	-1	-1	-1	-1	-1	31	19
-1	-1	-1	-1	-1	-1	-1	-1	20	-1	-1	-1	-1	-1	-1	-1	-1	-1	-1	35	-1	-1	22	27	-1	-1	-1	-1	33	-1	17	-1	-1	-1	-1	-1
-1	-1	-1	14	-1	-1	-1	-1	-1	-1	9	-1	13	30	-1	22	36	24	-1	25	34	-1	-1	-1	-1	-1	-1	-1	-1	-1	-1	-1	-1	-1	-1	-1
-1	-1	-1	-1	-1	-1	5	-1	29	-1	-1	-1	-1	21	-1	-1	-1	-1	-1	-1	-1	-1	24	-1	-1	8	-1	-1	-1	-1	-1	-1	-1	32	-1	-1
24	-1	-1	-1	-1	-1	23	6	-1	-1	-1	-1	-1	-1	-1	-1	35	31	-1	-1	-1	-1	-1	-1	-1	-1	-1	30	-1	-1	-1	-1	-1	-1	-1	-1
-1	-1	-1	-1	-1	31	-1	-1	-1	-1	-1	-1	-1	-1	-1	-1	-1	11	-1	-1	-1	-1	-1	-1	-1	-1	-1	-1	-1	-1	26	-1	-1	-1	-1	8
-1	-1	-1	-1	-1	-1	35	-1	-1	32	-1	-1	3	-1	-1	27	-1	-1	-1	-1	-1	-1	17	-1	-1	11	-1	-1	-1	-1	-1	-1	-1	-1	-1	-1
-1	18	-1	-1	-1	-1	-1	-1	-1	-1	-1	-1	-1	-1	-1	-1	-1	22	-1	-1	-1	-1	-1	-1	-1	-1	-1	28	-1	-1	-1	6	-1	-1	-1	-1
-1	-1	-1	-1	-1	-1	-1	-1	17	-1	-1	-1	-1	7	20	-1	-1	-1	-1	-1	-1	-1	-1	-1	-1	-1	-1	-1	-1	-1	5	21	-1	-1	-1	13
5	-1	-1	28	-1	-1	-1	-1	-1	-1	-1	-1	-1	-1	-1	-1	-1	34	-1	-1	-1	-1	-1	-1	-1	10	-1	-1	-1	-1	21	-1	-1	-1	-1	-1
-1	-1	6	-1	-1	-1	-1	-1	-1	-1	-1	-1	-1	-1	-1	-1	-1	14	-1	-1	-1	-1	-1	-1	-1	-1	-1	-1	-1	-1	-1	-1	-1	-1	-1	-1
-1	3	-1	-1	-1	-1	-1	-1	-1	-1	-1	28	-1	-1	-1	-1	-1	-1	-1	-1	-1	7	-1	-1	-1	-1	-1	-1	-1	-1	-1	-1	-1	-1	-1	-1
34	-1	13	-1	-1	-1	-1	32	30	33	-1	-1	-1	-1	-1	36	28	-1	18	-1	-1	-1	-1	-1	-1	-1	-1	-1	-1	-1	-1	-1	-1	-1	-1	11
-1	-1	-1	-1	-1	-1	-1	-1	13	-1	-1	-1	-1	-1	-1	17	-1	-1	5	-1	-1	-1	-1	-1	-1	-1	-1	32	-1	-1	-1	-1	-1	-1	-1	-1
-1	-1	24	-1	29	-1	-1	-1	-1	-1	35	-1	-1	-1	-1	-1	-1	-1	-1	-1	17	-1	-1	-1	-1	-1	-1	-1	-1	-1	28	-1	-1	-1	25	-1
-1	-1	-1	-1	-1	-1	-1	-1	-1	-1	22	-1	-1	-1	-1	12	-1	-1	-1	-1	-1	-1	-1	26	-1	-1	-1	-1	-1	21	-1	19	5	27	-1	-1
-1	-1	19	-1	-1	-1	-1	-1	-1	-1	-1	-1	-1	-1	5	14	-1	-1	-1	-1	-1	-1	-1	-1	-1	-1	-1	-1	-1	27	15	-1	-1	8	-1	-1
15	-1	-1	-1	-1	-1	-1	-1	1	-1	-1	-1	7	-1	-1	-1	-1	-1	-1	-1	-1	28	-1	5	-1	-1	-1	-1	-1	-1	-1	-1	-1	-1	-1	-1
-1	32	-1	-1	-1	-1	-1	-1	-1	-1	-1	-1	-1	-1	27	-1	-1	-1	-1	-1	-1	-1	11	33	-1	31	34	-1	-1	-1	-1	-1	-1	-1	-1	14
-1	-1	18	-1	-1	-1	-1	-1	-1	-1	-1	-1	-1	-1	-1	-1	-1	-1	-1	-1	-1	-1	-1	-1	2	-1	-1	-1	-1	-1	-1	-1	-1	-1	16	-1
-1	27	29	-1	33	-1	-1	-1	-1	-1	-1	-1	-1	-1	-1	-1	-1	-1	-1	-1	-1	-1	-1	-1	9	-1	-1	-1	-1	-1	-1	-1	-1	-1	-1	-1
-1	28	-1	-1	-1	-1	-1	-1	-1	-1	-1	-1	-1	-1	-1	-1	-1	-1	-1	-1	-1	-1	-1	-1	-1	16	-1	-1	-1	-1	-1	-1	21	-1	-1	-1
-1	-1	4	-1	-1	20	-1	23	-1	-1	-1	-1	-1	-1	-1	-1	-1	-1	-1	-1	-1	-1	-1	-1	-1	-1	-1	-1	36	-1	-1	-1	-1	-1	-1	-1
-1	-1	-1	-1	-1	-1	-1	-1	-1	-1	-1	-1	24	-1	-1	-1	-1	-1	30	-1	-1	-1	-1	-1	-1	-1	-1	-1	-1	-1	-1	-1	-1	16	-1	-1
-1	-1	-1	-1	-1	-1	-1	-1	-1	-1	-1	-1	-1	-1	-1	35	-1	-1	-1	-1	-1	-1	-1	-1	-1	-1	5	-1	-1	7	-1	-1	29	-1	-1	-1
-1	-1	-1	-1	-1	-1	8	-1	-1	-1	-1	-1	-1	-1	-1	-1	-1	-1	-1	-1	-1	-1	-1	-1	4	20	-1	-1	-1	-1	-1	-1	-1	-1	23	-1
-1	-1	-1	-1	-1	-1	-1	10	-1	-1	-1	13	-1	-1	-1	-1	-1	-1	-1	24	-1	-1	-1	-1	-1	-1	32	-1	-1	-1	-1	-1	19	6	-1	2
